
Gurobi 10.0.3 (win64) logging started Sat Nov  9 16:28:30 2024

Set parameter LogFile to value "r6.probability.lp.log"
Gurobi Optimizer version 10.0.3 build v10.0.3rc0 (win64)

CPU model: 12th Gen Intel(R) Core(TM) i5-1240P, instruction set [SSE2|AVX|AVX2]
Thread count: 12 physical cores, 16 logical processors, using up to 2 threads

Optimize a model with 1969 rows, 1168 columns and 13312 nonzeros
Model fingerprint: 0xfc4701f9
Variable types: 0 continuous, 1168 integer (1168 binary)
Coefficient statistics:
  Matrix range     [1e+00, 1e+01]
  Objective range  [1e+00, 2e+00]
  Bounds range     [1e+00, 1e+00]
  RHS range        [1e+00, 1e+00]
Presolve removed 416 rows and 448 columns
Presolve time: 0.02s
Presolved: 1553 rows, 720 columns, 12416 nonzeros
Variable types: 0 continuous, 720 integer (720 binary)
Found heuristic solution: objective 23.0000000

Root relaxation: objective 0.000000e+00, 2 iterations, 0.00 seconds (0.00 work units)

    Nodes    |    Current Node    |     Objective Bounds      |     Work
 Expl Unexpl |  Obj  Depth IntInf | Incumbent    BestBd   Gap | It/Node Time

     0     0    0.00000    0    1   23.00000    0.00000   100%     -    0s
     0     0    0.00000    0    1   23.00000    0.00000   100%     -    0s
H    0     0                      21.0000000    0.00000   100%     -    0s
     0     0    0.00000    0    1   21.00000    0.00000   100%     -    0s
H    0     0                      19.0000000    0.00000   100%     -    0s
     0     0    0.00000    0    1   19.00000    0.00000   100%     -    0s
H    0     0                      17.0000000    0.00000   100%     -    0s
     0     0    0.00000    0    1   17.00000    0.00000   100%     -    0s
     0     0    0.00000    0    1   17.00000    0.00000   100%     -    0s
     0     0    0.00000    0    1   17.00000    0.00000   100%     -    0s
     0     0    0.00000    0    1   17.00000    0.00000   100%     -    0s
     0     2    1.00000    0    1   17.00000    1.00000  94.1%     -    0s
*  101    76              32      16.0000000    1.16547  92.7%  14.6    0s
*  102    76              32      15.0000000    1.16547  92.2%  14.5    0s
H  244   118                      13.0000000    2.00000  84.6%  15.0    0s
H 2301   690                      12.0000000    4.82957  59.8%  26.2    1s
 11433  1111 infeasible   25        12.00000    6.98966  41.8%  21.5    5s

Cutting planes:
  Gomory: 1
  Cover: 5

Explored 16311 nodes (352510 simplex iterations) in 6.86 seconds (11.33 work units)
Thread count was 2 (of 16 available processors)

Solution count 8: 12 13 15 ... 23

Optimal solution found (tolerance 1.00e-04)
Best objective 1.200000000000e+01, best bound 1.200000000000e+01, gap 0.0000%
